NAME : rnd78_20.tsp
TYPE : TSP
DIMENSION : 20
EDGE_WEIGHT_TYPE : EUC_2D
NODE_COORD_SECTION
0 600 663
1 974 772
2 938 760
3 687 253
4 356 648
5 257 138
6 865 863
7 278 226
8 387 356
9 843 692
10 782 7
11 20 340
12 919 499
13 611 483
14 609 460
15 796 864
16 715 840
17 192 756
18 147 823
19 569 757
